0 22 9
0 35 4
1 3 9
1 6 5
2 7 12
2 31 6
3 17 4
4 9 6
4 52 9
5 40 6
5 52 20
6 18 11
7 25 8
8 16 16
8 39 11
9 51 6
10 63 24
10 66 9
11 20 8
11 59 9
12 28 2
12 69 6
13 19 7
13 27 14
14 23 4
14 56 7
15 22 10
15 46 6
16 42 4
17 41 6
18 23 20
19 29 7
20 33 1
21 58 6
21 65 6
24 44 8
24 45 19
25 54 16
26 45 6
26 67 21
27 48 14
28 35 12
29 43 15
30 34 13
30 68 2
31 41 13
32 33 14
32 61 18
34 69 14
36 46 10
36 57 1
37 58 8
37 68 9
38 44 7
38 60 9
39 60 5
40 42 11
43 67 4
47 53 13
47 66 5
48 54 8
49 50 16
49 57 9
50 55 9
51 59 9
53 61 11
55 64 8
56 62 14
62 65 6
63 64 20
The cost of the best tour is: 675.0
